c colouring generated by benchmark framework
p edge 385 19095
v 1 12
v 2 3
v 3 8
v 4 10
v 5 5
v 6 6
v 7 16
v 8 9
v 9 4
v 10 2
v 11 15
v 12 1
v 13 0
v 14 12
v 15 19
v 16 11
v 17 4
v 18 8
v 19 2
v 20 11
v 21 4
v 22 7
v 23 18
v 24 10
v 25 5
v 26 19
v 27 20
v 28 8
v 29 22
v 30 19
v 31 4
v 32 11
v 33 14
v 34 1
v 35 8
v 36 2
v 37 10
v 38 11
v 39 4
v 40 0
v 41 16
v 42 17
v 43 1
v 44 0
v 45 12
v 46 16
v 47 16
v 48 19
v 49 23
v 50 8
v 51 23
v 52 19
v 53 11
v 54 4
v 55 17
v 56 3
v 57 7
v 58 2
v 59 12
v 60 20
v 61 10
v 62 11
v 63 4
v 64 14
v 65 3
v 66 6
v 67 1
v 68 0
v 69 13
v 70 1
v 71 0
v 72 16
v 73 3
v 74 21
v 75 2
v 76 17
v 77 15
v 78 21
v 79 11
v 80 2
v 81 13
v 82 20
v 83 10
v 84 11
v 85 2
v 86 4
v 87 21
v 88 22
v 89 14
v 90 3
v 91 6
v 92 1
v 93 13
v 94 14
v 95 3
v 96 6
v 97 0
v 98 11
v 99 3
v 100 4
v 101 2
v 102 19
v 103 12
v 104 7
v 105 17
v 106 21
v 107 8
v 108 12
v 109 20
v 110 3
v 111 6
v 112 14
v 113 2
v 114 10
v 115 1
v 116 10
v 117 1
v 118 10
v 119 22
v 120 8
v 121 2
v 122 12
v 123 10
v 124 6
v 125 3
v 126 1
v 127 5
v 128 18
v 129 4
v 130 11
v 131 0
v 132 11
v 133 14
v 134 11
v 135 21
v 136 0
v 137 2
v 138 17
v 139 22
v 140 1
v 141 12
v 142 0
v 143 5
v 144 9
v 145 3
v 146 7
v 147 2
v 148 4
v 149 17
v 150 1
v 151 11
v 152 6
v 153 7
v 154 7
v 155 21
v 156 4
v 157 1
v 158 0
v 159 18
v 160 3
v 161 5
v 162 2
v 163 17
v 164 20
v 165 1
v 166 2
v 167 8
v 168 6
v 169 10
v 170 11
v 171 4
v 172 22
v 173 19
v 174 5
v 175 14
v 176 9
v 177 8
v 178 14
v 179 3
v 180 10
v 181 17
v 182 1
v 183 21
v 184 3
v 185 19
v 186 6
v 187 21
v 188 9
v 189 21
v 190 1
v 191 9
v 192 4
v 193 0
v 194 18
v 195 4
v 196 8
v 197 13
v 198 8
v 199 23
v 200 5
v 201 14
v 202 5
v 203 11
v 204 2
v 205 17
v 206 14
v 207 3
v 208 0
v 209 13
v 210 5
v 211 14
v 212 17
v 213 15
v 214 12
v 215 3
v 216 11
v 217 10
v 218 17
v 219 15
v 220 10
v 221 6
v 222 1
v 223 24
v 224 10
v 225 11
v 226 20
v 227 3
v 228 2
v 229 5
v 230 6
v 231 2
v 232 16
v 233 7
v 234 6
v 235 4
v 236 8
v 237 4
v 238 13
v 239 4
v 240 9
v 241 6
v 242 17
v 243 4
v 244 8
v 245 2
v 246 15
v 247 1
v 248 0
v 249 13
v 250 6
v 251 10
v 252 11
v 253 4
v 254 5
v 255 3
v 256 8
v 257 17
v 258 20
v 259 5
v 260 3
v 261 6
v 262 0
v 263 13
v 264 11
v 265 4
v 266 8
v 267 1
v 268 15
v 269 0
v 270 13
v 271 1
v 272 5
v 273 3
v 274 6
v 275 10
v 276 11
v 277 10
v 278 5
v 279 3
v 280 6
v 281 10
v 282 11
v 283 4
v 284 12
v 285 10
v 286 19
v 287 17
v 288 15
v 289 1
v 290 0
v 291 2
v 292 0
v 293 11
v 294 8
v 295 15
v 296 17
v 297 13
v 298 5
v 299 3
v 300 10
v 301 4
v 302 8
v 303 2
v 304 19
v 305 6
v 306 0
v 307 20
v 308 9
v 309 7
v 310 5
v 311 15
v 312 3
v 313 5
v 314 13
v 315 23
v 316 14
v 317 3
v 318 1
v 319 13
v 320 16
v 321 14
v 322 17
v 323 8
v 324 2
v 325 10
v 326 6
v 327 8
v 328 0
v 329 6
v 330 1
v 331 8
v 332 5
v 333 9
v 334 3
v 335 23
v 336 16
v 337 3
v 338 11
v 339 8
v 340 23
v 341 2
v 342 17
v 343 16
v 344 2
v 345 17
v 346 15
v 347 8
v 348 2
v 349 17
v 350 5
v 351 6
v 352 16
v 353 2
v 354 4
v 355 5
v 356 1
v 357 0
v 358 14
v 359 3
v 360 6
v 361 10
v 362 1
v 363 18
v 364 24
v 365 2
v 366 17
v 367 1
v 368 0
v 369 19
v 370 5
v 371 14
v 372 3
v 373 10
v 374 11
v 375 4
v 376 20
v 377 20
v 378 24
v 379 2
v 380 1
v 381 0
v 382 20
v 383 17
v 384 14
v 385 24
